 &control
    prefix='silicon',
    pseudo_dir = 'directory where pp-files are kept/',
    outdir='./tmp/'
 /
 &system    
    ibrav=  2, celldm(1) =10.2, nat=  2, ntyp= 1,
    ecutwfc = 12.0, 
 /
 &electrons
 /
ATOMIC_SPECIES
 Si  28.086  Si.pz-vbc.UPF
 
ATOMIC_POSITIONS alat
 Si 0.00 0.00 0.00 
 Si 0.25 0.25 0.25 
! this is a comment 

 K_POINTS automatic
   6 6 6 1 1 1
