&control
    calculation = 'relax'
    prefix = 'silicon'
    outdir = './tmp/'
    pseudo_dir = %PSEUDO_DIR_PLACEHOLDER
    etot_conv_thr = 1e-7
    forc_conv_thr = 1e-7
/

&system
    ibrav=2, celldm(1) =10.26,
    nat=2, ntyp=1,
    ecutwfc=60
/

&electrons
    conv_thr=1e-9
/

&ions
/

ATOMIC_SPECIES
  Si  28.0855  %PSEUDO_FILENAME_PLACEHOLDER

ATOMIC_POSITIONS (alat)
  Si 0.00 0.00 0.00
  Si 0.25 0.35 0.25

K_POINTS (automatic)
  6 6 6 1 1 1
