&control
    calculation = 'vc-relax',
    prefix      = 'Zn',
    outdir = './tmp/'
    pseudo_dir = '/home/cedric/PostPhD/Dev/JuliaMolSim/DFTK.jl/data/psp/hgh/lda/'
/

&system
    ibrav     =  4,
    celldm(1) =  4.8,
    celldm(3) =  1.8,
    nat       =  2,
    ntyp      =  1,

    ecutwfc =  70.0,
    ecutrho =  240.0,
    
    occupations =  'smearing',
    smearing    =  'methfessel-paxton',
    degauss     =  0.03,
/

&electrons
    conv_thr = 1d-10,
/
 
&ions
/

&cell
/

ATOMIC_SPECIES
   Zn 1.0 zn-q12.upf
   
ATOMIC_POSITIONS crystal
   Zn       0.000000000   0.000000000   0.000000
   Zn       0.666666667   0.333333333   0.500000

K_POINTS automatic
   6   6   4   1   1   1 
! coarse k-mesh as to speed-up
